5 5
8 4 3 11 4 12 1 18 2 18 2 5 19 1 3 1 1 7 3 3 3 4 12 1 10 5 1 3 3 19 2 5 4 10 5 4 1 5 3 5 1 9 5 17 2 8 4 9 3 4 3 2 7 1 14 4 2
5 4 5 5 1 4 2 17 4 13 2 2 13 1 20 4 5 4 4 7 3 14 1 15 1 3 4 5 5 4 4 10 2 3 3 14 1 7
7 5 2 10 3 12 1 19 4 18 5 2 3 5 6 4 5 3 3 1 1 15 5 1 12 5 4 4 14 3 13 2 2 3 4 9 5 20 3 12 2 1 14 4 3 1 1 10
6 5 3 13 5 7 2 15 4 14 1 17 4 5 14 2 13 4 10 1 13 3 5 11 2 14 1 17 4 4 15 3 8 2 16 5 4 3 5 14 3 7 1 12 2 2 12 3 2
4 5 4 19 5 2 3 16 1 5 2 5 4 5 18 3 16 1 5 4 10 3 4 9 5 14 2 9 2 3 17 5 5